Version identifier: 12.10.0.0 | 2019-11-26 | 843d4de
CPXPARAM_WorkMem                                 28672
Tried aggregator 2 times.
Aggregator did 60 substitutions.
Reduced MIP has 203 rows, 240 columns, and 906 nonzeros.
Reduced MIP has 240 binaries, 0 generals, 0 SOSs, and 0 indicators.
Presolve time = 0,00 sec. (0,86 ticks)
Found incumbent of value 180,000000 after 0,00 sec. (1,50 ticks)
Probing time = 0,00 sec. (0,31 ticks)
Tried aggregator 1 time.
Detecting symmetries...
MIP Presolve eliminated 48 rows and 0 columns.
MIP Presolve added 96 rows and 0 columns.
Reduced MIP has 251 rows, 240 columns, and 954 nonzeros.
Reduced MIP has 240 binaries, 0 generals, 0 SOSs, and 0 indicators.
Presolve time = 0,00 sec. (1,03 ticks)
Probing time = 0,00 sec. (0,30 ticks)
Clique table members: 626.
MIP emphasis: balance optimality and feasibility.
MIP search method: dynamic search.
Parallel mode: deterministic, using up to 16 threads.
Root relaxation solution time = 0,00 sec. (1,06 ticks)

        Nodes                                         Cuts/
   Node  Left     Objective  IInf  Best Integer    Best Bound    ItCnt     Gap

*     0+    0                          180,0000        0,0000           100,00%
*     0+    0                          102,0000        0,0000           100,00%
      0     0       60,0000   174      102,0000       60,0000      108   41,18%
      0     0       60,0000   174      102,0000     Cuts: 143      172   41,18%
      0     0       60,0000   174      102,0000     Cuts: 113      217   41,18%
      0     0       60,7998   174      102,0000     Cuts: 162      324   40,39%
      0     0       60,8856   174      102,0000       Cuts: 5      332   40,31%
      0     0       61,0197   174      102,0000      Fract: 2      355   40,18%
Detecting symmetries...
      0     0       61,0424   174      102,0000      Fract: 1      360   40,15%
      0     0       61,0445   174      102,0000      Fract: 1      362   40,15%
Detecting symmetries...
      0     2       61,0445   240      102,0000       64,9900      362   36,28%
Elapsed time = 0,16 sec. (67,09 ticks, tree = 0,02 MB, solutions = 2)
*  1029+  646                          100,0000       66,5527            33,45%
   3304  1756       92,0926   143      100,0000       82,9705   100687   17,03%

Performing restart 1

Repeating presolve.
Tried aggregator 1 time.
Reduced MIP has 251 rows, 240 columns, and 954 nonzeros.
Reduced MIP has 240 binaries, 0 generals, 0 SOSs, and 0 indicators.
Presolve time = 0,00 sec. (0,55 ticks)
Tried aggregator 1 time.
Reduced MIP has 251 rows, 240 columns, and 954 nonzeros.
Reduced MIP has 240 binaries, 0 generals, 0 SOSs, and 0 indicators.
Presolve time = 0,00 sec. (0,71 ticks)
Represolve time = 0,01 sec. (5,59 ticks)
   4554     0       61,3851   240      100,0000       Cuts: 2   164527   14,50%
   4554     0       61,5930   240      100,0000      Fract: 3   164562   14,50%
   4554     0       61,8424   240      100,0000       Cuts: 4   164613   14,50%
   4554     0       61,9679   240      100,0000       Cuts: 6   164661   14,50%
   4554     2       61,9679   239      100,0000       85,5043   164661   14,50%
   6016   847       89,1015   106      100,0000       85,5043   196426   14,50%
   8121  2482       93,6751    86      100,0000       85,5043   271285   14,50%
  10324  3743       84,1375   185      100,0000       85,5043   341899   14,50%

Performing restart 2

Repeating presolve.
Tried aggregator 1 time.
Reduced MIP has 251 rows, 240 columns, and 954 nonzeros.
Reduced MIP has 240 binaries, 0 generals, 0 SOSs, and 0 indicators.
Presolve time = 0,00 sec. (0,55 ticks)
Tried aggregator 1 time.
Reduced MIP has 251 rows, 240 columns, and 954 nonzeros.
Reduced MIP has 240 binaries, 0 generals, 0 SOSs, and 0 indicators.
Presolve time = 0,00 sec. (0,71 ticks)
Represolve time = 0,02 sec. (13,90 ticks)
  10513     0       62,6717   240      100,0000      Fract: 2   365451   14,50%
  10513     0       62,9065   240      100,0000      Fract: 2   365499   14,50%
  10513     0       63,0652   240      100,0000      Fract: 4   365552   14,50%
* 10513+    0                           99,0000       85,5043            13,63%
  10513     0       63,3745   240       99,0000      Cuts: 18   365621   13,63%
  10513     0       63,4551   240       99,0000      Fract: 5   365669   13,63%
  10513     0       63,7506   240       99,0000      Fract: 6   365739   13,63%
  10513     2       63,7506   239       99,0000       85,5043   365739   13,63%
  12732   964        cutoff             99,0000       85,5043   442520   13,63%
  15453  1843       95,7629   137       99,0000       90,2281   548984    8,86%
* 17754  1258      integral     0       98,0000       94,7206   633128    3,35%

Clique cuts applied:  41
Cover cuts applied:  440
Flow cuts applied:  6
Mixed integer rounding cuts applied:  39
Zero-half cuts applied:  3
Lift and project cuts applied:  1
Gomory fractional cuts applied:  40

Root node processing (before b&c):
  Real time             =    0,15 sec. (66,74 ticks)
Parallel b&c, 16 threads:
  Real time             =    3,11 sec. (2302,07 ticks)
  Sync time (average)   =    0,85 sec.
  Wait time (average)   =    0,01 sec.
                          ------------
Total (root+branch&cut) =    3,26 sec. (2368,80 ticks)
